c description: Tseitin formula on , with odd charge
c generator: CNFgen (0.9.0)
c copyright: (C) 2012-2020 Massimo Lauria <massimo.lauria@uniroma1.it>
c url: https://massimolauria.net/cnfgen
c
p cnf 20 169
1 2 3 4 0
1 2 -3 -4 0
1 -2 3 -4 0
1 -2 -3 4 0
-1 2 3 -4 0
-1 2 -3 4 0
-1 -2 3 4 0
-1 -2 -3 -4 0
5 6 -7 0
5 -6 7 0
-5 6 7 0
-5 -6 -7 0
5 8 9 -10 0
5 8 -9 10 0
5 -8 9 10 0
5 -8 -9 -10 0
-5 8 9 10 0
-5 8 -9 -10 0
-5 -8 9 -10 0
-5 -8 -9 10 0
1 6 11 12 13 14 -15 0
1 6 11 12 13 -14 15 0
1 6 11 12 -13 14 15 0
1 6 11 12 -13 -14 -15 0
1 6 11 -12 13 14 15 0
1 6 11 -12 13 -14 -15 0
1 6 11 -12 -13 14 -15 0
1 6 11 -12 -13 -14 15 0
1 6 -11 12 13 14 15 0
1 6 -11 12 13 -14 -15 0
1 6 -11 12 -13 14 -15 0
1 6 -11 12 -13 -14 15 0
1 6 -11 -12 13 14 -15 0
1 6 -11 -12 13 -14 15 0
1 6 -11 -12 -13 14 15 0
1 6 -11 -12 -13 -14 -15 0
1 -6 11 12 13 14 15 0
1 -6 11 12 13 -14 -15 0
1 -6 11 12 -13 14 -15 0
1 -6 11 12 -13 -14 15 0
1 -6 11 -12 13 14 -15 0
1 -6 11 -12 13 -14 15 0
1 -6 11 -12 -13 14 15 0
1 -6 11 -12 -13 -14 -15 0
1 -6 -11 12 13 14 -15 0
1 -6 -11 12 13 -14 15 0
1 -6 -11 12 -13 14 15 0
1 -6 -11 12 -13 -14 -15 0
1 -6 -11 -12 13 14 15 0
1 -6 -11 -12 13 -14 -15 0
1 -6 -11 -12 -13 14 -15 0
1 -6 -11 -12 -13 -14 15 0
-1 6 11 12 13 14 15 0
-1 6 11 12 13 -14 -15 0
-1 6 11 12 -13 14 -15 0
-1 6 11 12 -13 -14 15 0
-1 6 11 -12 13 14 -15 0
-1 6 11 -12 13 -14 15 0
-1 6 11 -12 -13 14 15 0
-1 6 11 -12 -13 -14 -15 0
-1 6 -11 12 13 14 -15 0
-1 6 -11 12 13 -14 15 0
-1 6 -11 12 -13 14 15 0
-1 6 -11 12 -13 -14 -15 0
-1 6 -11 -12 13 14 15 0
-1 6 -11 -12 13 -14 -15 0
-1 6 -11 -12 -13 14 -15 0
-1 6 -11 -12 -13 -14 15 0
-1 -6 11 12 13 14 -15 0
-1 -6 11 12 13 -14 15 0
-1 -6 11 12 -13 14 15 0
-1 -6 11 12 -13 -14 -15 0
-1 -6 11 -12 13 14 15 0
-1 -6 11 -12 13 -14 -15 0
-1 -6 11 -12 -13 14 -15 0
-1 -6 11 -12 -13 -14 15 0
-1 -6 -11 12 13 14 15 0
-1 -6 -11 12 13 -14 -15 0
-1 -6 -11 12 -13 14 -15 0
-1 -6 -11 12 -13 -14 15 0
-1 -6 -11 -12 13 14 -15 0
-1 -6 -11 -12 13 -14 15 0
-1 -6 -11 -12 -13 14 15 0
-1 -6 -11 -12 -13 -14 -15 0
2 8 11 16 -17 0
2 8 11 -16 17 0
2 8 -11 16 17 0
2 8 -11 -16 -17 0
2 -8 11 16 17 0
2 -8 11 -16 -17 0
2 -8 -11 16 -17 0
2 -8 -11 -16 17 0
-2 8 11 16 17 0
-2 8 11 -16 -17 0
-2 8 -11 16 -17 0
-2 8 -11 -16 17 0
-2 -8 11 16 -17 0
-2 -8 11 -16 17 0
-2 -8 -11 16 17 0
-2 -8 -11 -16 -17 0
3 7 9 12 16 -18 0
3 7 9 12 -16 18 0
3 7 9 -12 16 18 0
3 7 9 -12 -16 -18 0
3 7 -9 12 16 18 0
3 7 -9 12 -16 -18 0
3 7 -9 -12 16 -18 0
3 7 -9 -12 -16 18 0
3 -7 9 12 16 18 0
3 -7 9 12 -16 -18 0
3 -7 9 -12 16 -18 0
3 -7 9 -12 -16 18 0
3 -7 -9 12 16 -18 0
3 -7 -9 12 -16 18 0
3 -7 -9 -12 16 18 0
3 -7 -9 -12 -16 -18 0
-3 7 9 12 16 18 0
-3 7 9 12 -16 -18 0
-3 7 9 -12 16 -18 0
-3 7 9 -12 -16 18 0
-3 7 -9 12 16 -18 0
-3 7 -9 12 -16 18 0
-3 7 -9 -12 16 18 0
-3 7 -9 -12 -16 -18 0
-3 -7 9 12 16 -18 0
-3 -7 9 12 -16 18 0
-3 -7 9 -12 16 18 0
-3 -7 9 -12 -16 -18 0
-3 -7 -9 12 16 18 0
-3 -7 -9 12 -16 -18 0
-3 -7 -9 -12 16 -18 0
-3 -7 -9 -12 -16 18 0
13 -19 0
-13 19 0
14 -18 0
-14 18 0
4 10 15 17 19 -20 0
4 10 15 17 -19 20 0
4 10 15 -17 19 20 0
4 10 15 -17 -19 -20 0
4 10 -15 17 19 20 0
4 10 -15 17 -19 -20 0
4 10 -15 -17 19 -20 0
4 10 -15 -17 -19 20 0
4 -10 15 17 19 20 0
4 -10 15 17 -19 -20 0
4 -10 15 -17 19 -20 0
4 -10 15 -17 -19 20 0
4 -10 -15 17 19 -20 0
4 -10 -15 17 -19 20 0
4 -10 -15 -17 19 20 0
4 -10 -15 -17 -19 -20 0
-4 10 15 17 19 20 0
-4 10 15 17 -19 -20 0
-4 10 15 -17 19 -20 0
-4 10 15 -17 -19 20 0
-4 10 -15 17 19 -20 0
-4 10 -15 17 -19 20 0
-4 10 -15 -17 19 20 0
-4 10 -15 -17 -19 -20 0
-4 -10 15 17 19 -20 0
-4 -10 15 17 -19 20 0
-4 -10 15 -17 19 20 0
-4 -10 15 -17 -19 -20 0
-4 -10 -15 17 19 20 0
-4 -10 -15 17 -19 -20 0
-4 -10 -15 -17 19 -20 0
-4 -10 -15 -17 -19 20 0
-20 0